Instance name:	bar-n100-2
Authors:		Carlo Sartori and Luciana Buriol
Date:			2019-2-11
Reference:		A matheuristic approach to the PDPTW (to be submitted)
Solution
Route 1 : 39 89 37 29 79 43 30 87 80 5 93 23 73 10 55 2 52 60 41 91 14 64
Route 2 : 34 26 76 84 40 90 18 68 36 86 16 47 66 8 97 11 61 38 58 88 7 57
Route 3 : 15 65 27 42 92 31 77 33 83 81 6 3 48 98 56 44 53 94 32 46 96 82
Route 4 : 20 70 28 78 49 99 35 85 24 74
Route 5 : 12 13 62 63 17 19 69 50 9 59 67 45 95 21 71 1 51 4 54 100 25 75 22 72
